\* Source Pyomo model name=unknown *\

max 
x1:
-10.0 x2
-10.0 x3
-10.0 x4
-10.0 x5
-10.0 x6
-10.0 x7
-10.0 x8
-10.0 x9
-10.0 x10
-10.0 x11
+11.0 x12
+11.0 x13
+11.0 x14
+11.0 x15
+11.0 x16
+11.0 x17
+11.0 x18
+11.0 x19
+11.0 x20
+11.0 x21
-220.802324411751 x22
-220.802324411751 x23
-220.802324411751 x24
-220.802324411751 x25
-220.802324411751 x26
-220.802324411751 x27
-220.802324411751 x28
-220.802324411751 x29
-220.802324411751 x30
-220.802324411751 x31
-220.802324411751 x32

s.t.

c_e_x33_:
+1 x31
+1 x34
+1 x35
-1 x36
= 0

c_e_x37_:
+1 x27
-1 x34
+1 x38
+1 x39
= 0

c_e_x40_:
+1 x25
-1 x38
+1 x41
+1 x42
= 0

c_e_x43_:
+1 x24
-1 x41
+1 x44
+1 x45
= 0

c_e_x46_:
+1 x23
-1 x44
+1 x47
+1 x48
= 0

c_e_x49_:
+1 x32
-1 x47
+1 x50
+1 x51
= 0

c_e_x52_:
-1 x26
+1 x30
-1 x50
+1 x53
+1 x54
= 0

c_e_x55_:
-1 x28
-1 x53
+1 x56
+1 x57
= 0

c_e_x58_:
-1 x29
-1 x56
+1 x59
+1 x60
= 0

c_e_x61_:
-1 x22
-1 x59
+1 x62
= 0

c_e_x63_:
+1 x26
-1 x31
+1 x64
+1 x65
= 0

c_e_x66_:
-1 x27
+1 x28
-1 x64
+1 x67
+1 x68
= 0

c_e_x69_:
-1 x25
+1 x29
-1 x67
+1 x70
+1 x71
= 0

c_e_x72_:
+1 x22
-1 x24
-1 x70
+1 x73
+1 x74
= 0

c_e_x75_:
-1 x23
-1 x73
+1 x76
+1 x77
= 0

c_e_x78_:
-1 x32
-1 x76
+1 x79
+1 x80
= 0

c_e_x81_:
-1 x30
-1 x79
+1 x82
= 0

c_e_x83_:
+1 x36
+1 x84
= 1

c_e_x85_:
+1 x35
+1 x39
+1 x42
+1 x45
+1 x48
+1 x51
+1 x54
+1 x57
+1 x60
+1 x62
+1 x65
+1 x68
+1 x71
+1 x74
+1 x77
+1 x80
+1 x82
+1 x84
= 1

c_e_x86_:
+1 x2
+1 x87
-1 x88
= 0

c_e_x89_:
+1 x3
-1 x87
+1 x90
-1 x91
= 0

c_e_x92_:
+1 x4
-1 x90
+1 x93
-1 x94
= 0

c_e_x95_:
+1 x5
-1 x93
+1 x96
-1 x97
= 0

c_e_x98_:
+1 x6
-1 x96
+1 x99
-1 x100
= 0

c_e_x101_:
+1 x7
-1 x99
+1 x102
-1 x103
= 0

c_e_x104_:
+1 x8
-1 x102
+1 x105
-1 x106
= 0

c_e_x107_:
+1 x9
-1 x105
+1 x108
-1 x109
= 0

c_e_x110_:
+1 x10
-1 x108
+1 x111
-1 x112
= 0

c_e_x113_:
+1 x11
-1 x111
+1 x114
-1 x115
= 0

c_e_x116_:
-1 x12
+1 x117
+1 x118
= 351.0

c_e_x119_:
-1 x13
-1 x117
+1 x120
+1 x121
= 0

c_e_x122_:
-1 x14
-1 x120
+1 x123
+1 x124
= 0

c_e_x125_:
-1 x15
-1 x123
+1 x126
+1 x127
= 0

c_e_x128_:
-1 x16
-1 x126
+1 x129
+1 x130
= 0

c_e_x131_:
-1 x17
-1 x129
+1 x132
+1 x133
= 0

c_e_x134_:
-1 x18
-1 x132
+1 x135
+1 x136
= 0

c_e_x137_:
-1 x19
-1 x135
+1 x138
+1 x139
= 0

c_e_x140_:
-1 x20
-1 x138
+1 x141
+1 x142
= 0

c_e_x143_:
-1 x21
-1 x141
+1 x144
+1 x145
= 0

c_e_x146_:
-1 x2
+1 x12
+1 x147
= 0

c_e_x148_:
-1 x3
+1 x13
-1 x147
+1 x149
= 0

c_e_x150_:
-1 x4
+1 x14
-1 x149
+1 x151
= 0

c_e_x152_:
-1 x5
+1 x15
-1 x151
+1 x153
= 0

c_e_x154_:
-1 x6
+1 x16
-1 x153
+1 x155
= 0

c_e_x156_:
-1 x7
+1 x17
-1 x155
+1 x157
= 0

c_e_x158_:
-1 x8
+1 x18
-1 x157
+1 x159
= 0

c_e_x160_:
-1 x9
+1 x19
-1 x159
+1 x161
= 0

c_e_x162_:
-1 x10
+1 x20
-1 x161
+1 x163
= 0

c_e_x164_:
-1 x11
+1 x21
-1 x163
+1 x165
= 0

c_u_x166_:
+1 x167
<= 1

c_u_x168_:
+1 x169
<= 1

c_u_x170_:
+1 x171
<= 1

c_u_x172_:
+1 x173
<= 1

c_u_x174_:
+1 x175
<= 1

c_u_x176_:
+1 x177
<= 1

c_u_x178_:
+1 x179
<= 1

c_u_x180_:
+1 x181
<= 1

c_u_x182_:
+1 x183
<= 1

c_u_x184_:
+1 x185
<= 1

c_u_x186_:
+1 x187
<= 1

c_u_x188_:
+1 x189
<= 1

c_u_x190_:
+1 x191
<= 1

c_u_x192_:
+1 x193
<= 1

c_u_x194_:
+1 x195
<= 1

c_u_x196_:
+1 x197
<= 1

c_u_x198_:
+1 x199
<= 1

c_u_x200_:
+1 x201
<= 1

c_u_x202_:
+1 x203
<= 1

c_u_x204_:
+1 x205
<= 1

c_u_x206_:
-1 x36
+1 x167
<= 0

c_u_x207_:
-1 x34
+1 x169
<= 0

c_u_x208_:
-1 x38
+1 x171
<= 0

c_u_x209_:
-1 x41
+1 x173
<= 0

c_u_x210_:
-1 x44
+1 x175
<= 0

c_u_x211_:
-1 x47
+1 x177
<= 0

c_u_x212_:
-1 x26
-1 x50
+1 x179
<= 0

c_u_x213_:
-1 x28
-1 x53
+1 x181
<= 0

c_u_x214_:
-1 x29
-1 x56
+1 x183
<= 0

c_u_x215_:
-1 x22
-1 x59
+1 x185
<= 0

c_u_x216_:
+1 x187
<= 0

c_u_x217_:
+1 x189
<= 0

c_u_x218_:
+1 x191
<= 0

c_u_x219_:
-1 x31
+1 x193
<= 0

c_u_x220_:
-1 x27
-1 x64
+1 x195
<= 0

c_u_x221_:
-1 x25
-1 x67
+1 x197
<= 0

c_u_x222_:
-1 x24
-1 x70
+1 x199
<= 0

c_u_x223_:
-1 x23
-1 x73
+1 x201
<= 0

c_u_x224_:
-1 x32
-1 x76
+1 x203
<= 0

c_u_x225_:
-1 x30
-1 x79
+1 x205
<= 0

c_u_x226_:
-1 x2
+35.0 x167
<= 0

c_u_x227_:
-1 x3
+35.0 x169
<= 0

c_u_x228_:
-1 x4
+35.0 x171
<= 0

c_u_x229_:
-1 x5
+35.0 x173
<= 0

c_u_x230_:
-1 x6
+35.0 x175
<= 0

c_u_x231_:
-1 x7
+35.0 x177
<= 0

c_u_x232_:
-1 x8
+35.0 x179
<= 0

c_u_x233_:
-1 x9
+35.0 x181
<= 0

c_u_x234_:
-1 x10
+35.0 x183
<= 0

c_u_x235_:
-1 x11
+35.0 x185
<= 0

c_u_x236_:
-1 x12
+50.0 x187
<= 0

c_u_x237_:
-1 x13
+50.0 x189
<= 0

c_u_x238_:
-1 x14
+50.0 x191
<= 0

c_u_x239_:
-1 x15
+50.0 x193
<= 0

c_u_x240_:
-1 x16
+50.0 x195
<= 0

c_u_x241_:
-1 x17
+50.0 x197
<= 0

c_u_x242_:
-1 x18
+50.0 x199
<= 0

c_u_x243_:
-1 x19
+50.0 x201
<= 0

c_u_x244_:
-1 x20
+50.0 x203
<= 0

c_u_x245_:
-1 x21
+50.0 x205
<= 0

c_u_x246_:
+1 x2
-322.0 x167
<= 0

c_u_x247_:
+1 x3
-322.0 x169
<= 0

c_u_x248_:
+1 x4
-322.0 x171
<= 0

c_u_x249_:
+1 x5
-322.0 x173
<= 0

c_u_x250_:
+1 x6
-322.0 x175
<= 0

c_u_x251_:
+1 x7
-322.0 x177
<= 0

c_u_x252_:
+1 x8
-322.0 x179
<= 0

c_u_x253_:
+1 x9
-322.0 x181
<= 0

c_u_x254_:
+1 x10
-322.0 x183
<= 0

c_u_x255_:
+1 x11
-322.0 x185
<= 0

c_u_x256_:
+1 x12
-390.0 x187
<= 0

c_u_x257_:
+1 x13
-390.0 x189
<= 0

c_u_x258_:
+1 x14
-390.0 x191
<= 0

c_u_x259_:
+1 x15
-390.0 x193
<= 0

c_u_x260_:
+1 x16
-390.0 x195
<= 0

c_u_x261_:
+1 x17
-390.0 x197
<= 0

c_u_x262_:
+1 x18
-390.0 x199
<= 0

c_u_x263_:
+1 x19
-390.0 x201
<= 0

c_u_x264_:
+1 x20
-390.0 x203
<= 0

c_u_x265_:
+1 x21
-390.0 x205
<= 0

c_l_x266_:
+1 x88
>= 33.0

c_l_x267_:
+1 x91
>= 33.0

c_l_x268_:
+1 x94
>= 33.0

c_l_x269_:
+1 x97
>= 33.0

c_l_x270_:
+1 x100
>= 33.0

c_l_x271_:
+1 x103
>= 33.0

c_l_x272_:
+1 x106
>= 33.0

c_l_x273_:
+1 x109
>= 33.0

c_l_x274_:
+1 x112
>= 33.0

c_l_x275_:
+1 x115
>= 33.0

c_l_x276_:
+1 x118
>= 39.0

c_l_x277_:
+1 x121
>= 39.0

c_l_x278_:
+1 x124
>= 39.0

c_l_x279_:
+1 x127
>= 39.0

c_l_x280_:
+1 x130
>= 39.0

c_l_x281_:
+1 x133
>= 39.0

c_l_x282_:
+1 x136
>= 39.0

c_l_x283_:
+1 x139
>= 39.0

c_l_x284_:
+1 x142
>= 39.0

c_l_x285_:
+1 x145
>= 39.0

c_u_x286_:
+1 x88
<= 99.0

c_u_x287_:
+1 x91
<= 99.0

c_u_x288_:
+1 x94
<= 99.0

c_u_x289_:
+1 x97
<= 99.0

c_u_x290_:
+1 x100
<= 99.0

c_u_x291_:
+1 x103
<= 99.0

c_u_x292_:
+1 x106
<= 99.0

c_u_x293_:
+1 x109
<= 99.0

c_u_x294_:
+1 x112
<= 99.0

c_u_x295_:
+1 x115
<= 99.0

c_u_x296_:
+1 x118
<= 39.0

c_u_x297_:
+1 x121
<= 39.0

c_u_x298_:
+1 x124
<= 39.0

c_u_x299_:
+1 x127
<= 39.0

c_u_x300_:
+1 x130
<= 39.0

c_u_x301_:
+1 x133
<= 39.0

c_u_x302_:
+1 x136
<= 39.0

c_u_x303_:
+1 x139
<= 39.0

c_u_x304_:
+1 x142
<= 39.0

c_u_x305_:
+1 x145
<= 39.0

c_l_x306_:
+1 x87
>= 0

c_l_x307_:
+1 x90
>= 0

c_l_x308_:
+1 x93
>= 0

c_l_x309_:
+1 x96
>= 0

c_l_x310_:
+1 x99
>= 0

c_l_x311_:
+1 x102
>= 0

c_l_x312_:
+1 x105
>= 0

c_l_x313_:
+1 x108
>= 0

c_l_x314_:
+1 x111
>= 0

c_l_x315_:
+1 x114
>= 0

c_l_x316_:
+1 x117
>= 0

c_l_x317_:
+1 x120
>= 0

c_l_x318_:
+1 x123
>= 0

c_l_x319_:
+1 x126
>= 0

c_l_x320_:
+1 x129
>= 0

c_l_x321_:
+1 x132
>= 0

c_l_x322_:
+1 x135
>= 0

c_l_x323_:
+1 x138
>= 0

c_l_x324_:
+1 x141
>= 0

c_l_x325_:
+1 x144
>= 0

c_u_x326_:
+1 x87
<= 594.0

c_u_x327_:
+1 x90
<= 594.0

c_u_x328_:
+1 x93
<= 594.0

c_u_x329_:
+1 x96
<= 594.0

c_u_x330_:
+1 x99
<= 594.0

c_u_x331_:
+1 x102
<= 594.0

c_u_x332_:
+1 x105
<= 594.0

c_u_x333_:
+1 x108
<= 594.0

c_u_x334_:
+1 x111
<= 594.0

c_u_x335_:
+1 x114
<= 594.0

c_u_x336_:
+1 x117
<= 351.0

c_u_x337_:
+1 x120
<= 351.0

c_u_x338_:
+1 x123
<= 351.0

c_u_x339_:
+1 x126
<= 351.0

c_u_x340_:
+1 x129
<= 351.0

c_u_x341_:
+1 x132
<= 351.0

c_u_x342_:
+1 x135
<= 351.0

c_u_x343_:
+1 x138
<= 351.0

c_u_x344_:
+1 x141
<= 351.0

c_u_x345_:
+1 x144
<= 351.0

c_u_x346_:
+1 x147
<= 200.0

c_u_x347_:
+1 x149
<= 200.0

c_u_x348_:
+1 x151
<= 200.0

c_u_x349_:
+1 x153
<= 200.0

c_u_x350_:
+1 x155
<= 200.0

c_u_x351_:
+1 x157
<= 200.0

c_u_x352_:
+1 x159
<= 200.0

c_u_x353_:
+1 x161
<= 200.0

c_u_x354_:
+1 x163
<= 200.0

c_u_x355_:
+1 x165
<= 200.0

c_l_x356_:
+1 x147
>= 0

c_l_x357_:
+1 x149
>= 0

c_l_x358_:
+1 x151
>= 0

c_l_x359_:
+1 x153
>= 0

c_l_x360_:
+1 x155
>= 0

c_l_x361_:
+1 x157
>= 0

c_l_x362_:
+1 x159
>= 0

c_l_x363_:
+1 x161
>= 0

c_l_x364_:
+1 x163
>= 0

c_l_x365_:
+1 x165
>= 0

bounds
   0 <= x2 <= +1e30
   0 <= x3 <= +1e30
   0 <= x4 <= +1e30
   0 <= x5 <= +1e30
   0 <= x6 <= +1e30
   0 <= x7 <= +1e30
   0 <= x8 <= +1e30
   0 <= x9 <= +1e30
   0 <= x10 <= +1e30
   0 <= x11 <= +1e30
   0 <= x12 <= +1e30
   0 <= x13 <= +1e30
   0 <= x14 <= +1e30
   0 <= x15 <= +1e30
   0 <= x16 <= +1e30
   0 <= x17 <= +1e30
   0 <= x18 <= +1e30
   0 <= x19 <= +1e30
   0 <= x20 <= +1e30
   0 <= x21 <= +1e30
   0 <= x22 <= 1
   0 <= x23 <= 1
   0 <= x24 <= 1
   0 <= x25 <= 1
   0 <= x26 <= 1
   0 <= x27 <= 1
   0 <= x28 <= 1
   0 <= x29 <= 1
   0 <= x30 <= 1
   0 <= x31 <= 1
   0 <= x32 <= 1
   0 <= x34 <= 1
   0 <= x35 <= 1
   0 <= x36 <= 1
   0 <= x38 <= 1
   0 <= x39 <= 1
   0 <= x41 <= 1
   0 <= x42 <= 1
   0 <= x44 <= 1
   0 <= x45 <= 1
   0 <= x47 <= 1
   0 <= x48 <= 1
   0 <= x50 <= 1
   0 <= x51 <= 1
   0 <= x53 <= 1
   0 <= x54 <= 1
   0 <= x56 <= 1
   0 <= x57 <= 1
   0 <= x59 <= 1
   0 <= x60 <= 1
   0 <= x62 <= 1
   0 <= x64 <= 1
   0 <= x65 <= 1
   0 <= x67 <= 1
   0 <= x68 <= 1
   0 <= x70 <= 1
   0 <= x71 <= 1
   0 <= x73 <= 1
   0 <= x74 <= 1
   0 <= x76 <= 1
   0 <= x77 <= 1
   0 <= x79 <= 1
   0 <= x80 <= 1
   0 <= x82 <= 1
   0 <= x84 <= 1
   0 <= x87 <= +1e30
   0 <= x88 <= +1e30
   0 <= x90 <= +1e30
   0 <= x91 <= +1e30
   0 <= x93 <= +1e30
   0 <= x94 <= +1e30
   0 <= x96 <= +1e30
   0 <= x97 <= +1e30
   0 <= x99 <= +1e30
   0 <= x100 <= +1e30
   0 <= x102 <= +1e30
   0 <= x103 <= +1e30
   0 <= x105 <= +1e30
   0 <= x106 <= +1e30
   0 <= x108 <= +1e30
   0 <= x109 <= +1e30
   0 <= x111 <= +1e30
   0 <= x112 <= +1e30
   0 <= x114 <= +1e30
   0 <= x115 <= +1e30
   0 <= x117 <= +1e30
   0 <= x118 <= +1e30
   0 <= x120 <= +1e30
   0 <= x121 <= +1e30
   0 <= x123 <= +1e30
   0 <= x124 <= +1e30
   0 <= x126 <= +1e30
   0 <= x127 <= +1e30
   0 <= x129 <= +1e30
   0 <= x130 <= +1e30
   0 <= x132 <= +1e30
   0 <= x133 <= +1e30
   0 <= x135 <= +1e30
   0 <= x136 <= +1e30
   0 <= x138 <= +1e30
   0 <= x139 <= +1e30
   0 <= x141 <= +1e30
   0 <= x142 <= +1e30
   0 <= x144 <= +1e30
   0 <= x145 <= +1e30
   0 <= x147 <= +1e30
   0 <= x149 <= +1e30
   0 <= x151 <= +1e30
   0 <= x153 <= +1e30
   0 <= x155 <= +1e30
   0 <= x157 <= +1e30
   0 <= x159 <= +1e30
   0 <= x161 <= +1e30
   0 <= x163 <= +1e30
   0 <= x165 <= +1e30
   0 <= x167 <= 1
   0 <= x169 <= 1
   0 <= x171 <= 1
   0 <= x173 <= 1
   0 <= x175 <= 1
   0 <= x177 <= 1
   0 <= x179 <= 1
   0 <= x181 <= 1
   0 <= x183 <= 1
   0 <= x185 <= 1
   0 <= x187 <= 1
   0 <= x189 <= 1
   0 <= x191 <= 1
   0 <= x193 <= 1
   0 <= x195 <= 1
   0 <= x197 <= 1
   0 <= x199 <= 1
   0 <= x201 <= 1
   0 <= x203 <= 1
   0 <= x205 <= 1
binary
  x22
  x23
  x24
  x25
  x26
  x27
  x28
  x29
  x30
  x31
  x32
  x34
  x35
  x36
  x38
  x39
  x41
  x42
  x44
  x45
  x47
  x48
  x50
  x51
  x53
  x54
  x56
  x57
  x59
  x60
  x62
  x64
  x65
  x67
  x68
  x70
  x71
  x73
  x74
  x76
  x77
  x79
  x80
  x82
  x84
  x167
  x169
  x171
  x173
  x175
  x177
  x179
  x181
  x183
  x185
  x187
  x189
  x191
  x193
  x195
  x197
  x199
  x201
  x203
  x205
end
